NAME:  br17d.04 
TYPE:  AHPP-TW 
COMMENT: br17.atsp + random time windows (N. Ascheuer, 1994) 
DIMENSION: 19 
EDGE_WEIGHT_TYPE: EXPLICIT 
EDGE_WEIGHT_FORMAT: FULL_MATRIX 
TIME_WINDOW_SECTION 
   1 :    0   [   0,    0]
   2 :   51   [   0, 9999999]
   3 :   52   [   0, 9999999]
   4 :   69   [ 432,  490]
   5 :   51   [   0, 9999999]
   6 :   51   [ 850,  880]
   7 :   53   [   0, 9999999]
   8 :   54   [   0,   68]
   9 :   47   [   0, 9999999]
  10 :   45   [   0, 9999999]
  11 :   51   [ 514,  552]
  12 :   38   [   0, 9999999]
  13 :   54   [   0, 9999999]
  14 :   53   [   0, 9999999]
  15 :   37   [   0, 9999999]
  16 :   48   [   0, 9999999]
  17 :   35   [   0, 9999999]
  18 :   63   [   0, 9999999]
  19 :    0   [13333332, 19999998]
EDGE_WEIGHT_SECTION 
  0   0   0   0   0   0   0   0   0   0   0   0   0   0   0   0   0   0   0 
  0   0   3   5  48  48   8   8   5   5   3   3   0   3   5   8   8   5   0 
  0   3   0   3  48  48   8   8   5   5   0   0   3   0   3   8   8   5   0 
  0   5   3   0  72  72  48  48  24  24   3   3   5   3   0  48  48  24   0 
  0  48  48  74   0   0   6   6  12  12  48  48  48  48  74   6   6  12   0 
  0  48  48  74   0   0   6   6  12  12  48  48  48  48  74   6   6  12   0 
  0   8   8  50   6   6   0   0   8   8   8   8   8   8  50   0   0   8   0 
  0   8   8  50   6   6   0   0   8   8   8   8   8   8  50   0   0   8   0 
  0   5   5  26  12  12   8   8   0   0   5   5   5   5  26   8   8   0   0 
  0   5   5  26  12  12   8   8   0   0   5   5   5   5  26   8   8   0   0 
  0   3   0   3  48  48   8   8   5   5   0   0   3   0   3   8   8   5   0 
  0   3   0   3  48  48   8   8   5   5   0   0   3   0   3   8   8   5   0 
  0   0   3   5  48  48   8   8   5   5   3   3   0   3   5   8   8   5   0 
  0   3   0   3  48  48   8   8   5   5   0   0   3   0   3   8   8   5   0 
  0   5   3   0  72  72  48  48  24  24   3   3   5   3   0  48  48  24   0 
  0   8   8  50   6   6   0   0   8   8   8   8   8   8  50   0   0   8   0 
  0   8   8  50   6   6   0   0   8   8   8   8   8   8  50   0   0   8   0 
  0   5   5  26  12  12   8   8   0   0   5   5   5   5  26   8   8   0   0 
  0   0   0   0   0   0   0   0   0   0   0   0   0   0   0   0   0   0   0 
EOF 
